\ LP format - for model browsing. Use MPS format to capture full model detail.
Minimize
  0 B8(0) + 0 B9(0) + 0 B12(0) + 0 B13(0) + 0 B16(0) + 0 B17(0) + 0 B18(0)
   + 0 B20(0) + 0 B21(0) + 0 B22(0) + 0 B23(0) + I32(1)
Subject To
 c0: B0(11) + B1(11) = 1
 c1: B2(9) + B3(9) = 1
 c2: B4(11) + B5(11) = 1
 c3: B6(11) + B7(11) = 1
 c4: - 65000 B0(11) + I24(13) <= 0
 c5: - 65000 B1(11) + I25(13) <= 0
 c6: - 65000 B2(9) + I26(11) <= 0
 c7: - 65000 B3(9) + I27(11) <= 0
 c8: - 65000 B4(11) + I28(11) <= 0
 c9: - 65000 B5(11) + I29(11) <= 0
 c10: - 65000 B6(11) + I30(11) <= 0
 c11: - 65000 B7(11) + I31(11) <= 0
 c12: - 25 B0(11) - 37 B1(11) - I24(13) - I25(13) + I26(11) + I27(11) >= 0
 c13: - 65025 B0(11) - 37 B1(11) - 65000 B2(9) - I24(13) - I25(13)
   + I26(11) + I27(11) >= -129997
 c14: - 25 B0(11) - 65037 B1(11) - 65000 B3(9) - I24(13) - I25(13)
   + I26(11) + I27(11) >= -129997
 c15: - 65000 B0(11) - 65000 B4(11) - 65000 B10(4) + I24(13) - I28(11)
   >= -194952
 c16: - 65000 B0(11) - 65000 B4(11) + 65000 B10(4) - I24(13) + I28(11)
   >= -129971
 c17: - 65000 B1(11) - 65000 B5(11) - 65000 B10(4) + I25(13) - I29(11)
   >= -194932
 c18: - 65000 B1(11) - 65000 B5(11) + 65000 B10(4) - I25(13) + I29(11)
   >= -129959
 c19: - 65000 B0(11) - 65000 B6(11) - 65000 B11(4) + I24(13) - I30(11)
   >= -194975
 c20: - 65000 B0(11) - 65000 B6(11) + 65000 B11(4) - I24(13) + I30(11)
   >= -129971
 c21: - 65000 B1(11) - 65000 B7(11) - 65000 B11(4) + I25(13) - I31(11)
   >= -194932
 c22: - 65000 B1(11) - 65000 B7(11) + 65000 B11(4) - I25(13) + I31(11)
   >= -129960
 c23: - 65000 B2(9) - 65000 B4(11) - 65000 B14(4) + I26(11) - I28(11)
   >= -194952
 c24: - 65000 B2(9) - 65000 B4(11) + 65000 B14(4) - I26(11) + I28(11)
   >= -129964
 c25: - 65000 B3(9) - 65000 B5(11) - 65000 B14(4) + I27(11) - I29(11)
   >= -194932
 c26: - 65000 B3(9) - 65000 B5(11) + 65000 B14(4) - I27(11) + I29(11)
   >= -129973
 c27: - 65000 B2(9) - 65000 B6(11) - 65000 B15(4) + I26(11) - I30(11)
   >= -194975
 c28: - 65000 B2(9) - 65000 B6(11) + 65000 B15(4) - I26(11) + I30(11)
   >= -129964
 c29: - 65000 B3(9) - 65000 B7(11) - 65000 B15(4) + I27(11) - I31(11)
   >= -194931
 c30: - 65000 B3(9) - 65000 B7(11) + 65000 B15(4) - I27(11) + I31(11)
   >= -129973
 c31: - 65000 B4(11) - 65000 B6(11) - 65000 B19(4) + I28(11) - I30(11)
   >= -194975
 c32: - 65000 B4(11) - 65000 B6(11) + 65000 B19(4) - I28(11) + I30(11)
   >= -129951
 c33: - 65000 B5(11) - 65000 B7(11) - 65000 B19(4) + I29(11) - I31(11)
   >= -194932
 c34: - 65000 B5(11) - 65000 B7(11) + 65000 B19(4) - I29(11) + I31(11)
   >= -129931
 c35: I24(13) >= 0
 c36: - 8 B0(11) + I24(13) >= 0
 c37: I25(13) >= 0
 c38: - 8 B1(11) + I25(13) >= 0
 c39: I26(11) >= 0
 c40: - 8 B2(9) + I26(11) >= 0
 c41: I27(11) >= 0
 c42: - 8 B3(9) + I27(11) >= 0
 c43: I28(11) >= 0
 c44: - 8 B4(11) + I28(11) >= 0
 c45: I29(11) >= 0
 c46: - 8 B5(11) + I29(11) >= 0
 c47: I30(11) >= 0
 c48: - 8 B6(11) + I30(11) >= 0
 c49: I31(11) >= 0
 c50: - 8 B7(11) + I31(11) >= 0
 c51: - 45 B4(11) - 65 B5(11) + I24(13) + I25(13) - I28(11) - I29(11) >= 0
 c52: - 21 B6(11) - 65 B7(11) + I24(13) + I25(13) - I30(11) - I31(11) >= 0
 c53: - 25 B0(11) - 37 B1(11) - 32 B2(9) - 24 B3(9) - 45 B4(11) - 65 B5(11)
   - 21 B6(11) - 65 B7(11) - I24(13) - I25(13) - I26(11) - I27(11)
   - I28(11) - I29(11) - I30(11) - I31(11) + I32(1) >= 0
Bounds
Binaries
 B0(11) B1(11) B2(9) B3(9) B4(11) B5(11) B6(11) B7(11) B8(0) B9(0) B10(4)
 B11(4) B12(0) B13(0) B14(4) B15(4) B16(0) B17(0) B18(0) B19(4) B20(0)
 B21(0) B22(0) B23(0)
Generals
 I24(13) I25(13) I26(11) I27(11) I28(11) I29(11) I30(11) I31(11) I32(1)
End
